32	4
18	12	15	18
0	0	0	0	0	2	2	3
1	0	0	4	4	2	4	6
3	10	0	15	0	2	4	6
4	9	12	0	0	1	5
10	4	0	0	7	1	7
5	18	0	0	2	1	7
4	2	0	9	0	1	8
3	0	7	1	0	2	9	11
7	0	0	2	14	1	10
10	6	3	0	0	1	12
4	0	12	1	0	1	12
10	0	6	8	0	1	13
6	7	0	0	8	1	14
5	18	0	12	0	2	15	17
8	1	1	0	0	1	16
6	0	5	0	14	1	18
1	7	0	0	13	1	18
2	17	0	11	0	1	19
4	18	0	0	8	1	20
9	0	7	5	0	2	21	22
8	16	0	9	0	1	23
2	0	9	0	5	1	23
2	0	0	4	18	1	24
4	0	0	7	1	1	25
5	0	2	0	9	2	26	29
9	0	9	13	0	1	27
8	1	6	0	0	1	28
7	1	0	0	18	1	30
9	0	2	0	8	1	30
2	0	4	12	0	1	31
3	0	5	0	6	1	32
0	0	0	0	0	0
